(set-logic QF_S)
(declare-fun H () String)
(declare-fun N () String)
(declare-fun E () String)
(declare-fun J () String)
(declare-fun L () String)
(declare-fun M () String)
(assert (= (str.++  E "a" E "b" L "b" N)  (str.++  "a" H H H "a" J J J J "b" M M "baa") ))
(check-sat)
(get-model)
